p wcnf 34 28 1
1 -1 4 
1 -2 5 
1 -3 6 
1 -7 1 
1 -8 1 
1 -9 1 
1 -7 10 
1 -7 11 
1 -8 11 
1 -8 12 
1 -9 12 
1 -9 13 
1 -14 1 
1 -15 1 
1 -16 1 
1 -14 17 
1 -14 18 
1 -14 19 
1 -15 18 
1 -15 19 
1 -15 20 
1 -16 19 
1 -16 20 
1 -16 21 
1 -22 7 
1 -23 7 
1 -22 24 
1 -22 25 
1 -23 25 
1 -23 26 
1 -27 14 22 
1 -27 28 
1 7 8 9 14 15 16 
1 7 8 9 14 15 16 22 23 
1 28 
